\* Problem: Unknown *\

Maximize
 obj: + xp_0_0 + xp_0_1 + xp_0_2 + xp_0_3 + xp_0_4 + xp_0_5 + xp_0_6
 + xp_0_7 + xp_1_0 + xp_1_1 + xp_2_0 + xp_2_1 + xp_2_2 + xp_2_3 + xp_2_4
 + xp_3_0 + xp_3_1 + xp_3_2 + xp_3_3 + xp_4_0 + xp_5_0 + xp_5_1 + xp_6_0
 + xp_7_0 + xp_7_1 + xp_8_0 + xp_8_1 + xp_9_0 + xp_10_0 + xp_11_0
 + xp_11_1 + xp_11_2 + xp_11_3 + xp_12_0 + xp_13_0 + xp_13_1 + xp_14_0
 + xp_14_1 + xp_15_0 + xp_16_0 + xp_16_1 + xp_17_0 + xp_17_1 + xp_17_2
 + xp_17_3 + xp_17_4 + xp_17_5 + xp_17_6 + xp_18_0 + xp_18_1 + xp_18_2
 + xp_18_3 + xp_18_4 + xp_18_5 + xp_19_0 + xp_19_1 + xp_19_2 + xp_19_3
 + xp_19_4 + xp_20_0 + xp_20_1 + xp_20_2 + xp_20_3 + xp_21_0 + xp_21_1
 + xp_21_2 + xp_21_3 + xp_21_4 + xp_22_0 + xp_22_1 + xp_22_2 + xp_22_3
 + xp_22_4 + xp_22_5 + xp_23_0 + xp_23_1 + xp_23_2 + xp_23_3 + xp_23_4

Subject To
 r_1: 0 xp_0_0 <= 29.4574468085106
 r_2: + xp_22_3 + xp_18_5 + xp_18_1 + xp_5_1 + xp_2_2
 <= 28.8106343283582
 r_3: + xp_23_2 + xp_21_4 + xp_21_3 + xp_18_2 <= 30
 r_4: + xp_18_3 + xp_17_4 + xp_15_0 <= 30
 r_5: + xp_18_0 <= 27.7826086956522
 r_6: + xp_19_3 + xp_18_4 <= 30
 r_7: + xp_20_3 <= 29.4574468085106
 r_8: + xp_22_2 + xp_11_3 + xp_3_3 + xp_3_2 + xp_2_1 <= 28.8106343283582
 r_9: + xp_23_1 + xp_11_1 + xp_3_1 <= 30
 r_10: + xp_17_3 + xp_3_0 <= 30
 r_11: + xp_18_4 + xp_11_2 <= 27.7826086956522
 r_12: + xp_11_0 <= 30
 r_13: 0 xp_0_0 <= 30
 r_14: + xp_14_0 + xp_0_7 + xp_0_5 + xp_0_1 <= 28.8106343283582
 r_15: + xp_21_0 + xp_19_4 <= 29.4574468085106
 r_16: + xp_22_1 + xp_21_3 + xp_21_2 + xp_0_4 + xp_0_2
 <= 29.4574468085106
 r_17: + xp_0_0 <= 27.7826086956522
 r_18: + xp_21_4 + xp_19_3 + xp_4_0 <= 29.4574468085106
 r_19: + xp_19_0 <= 29.4574468085106
 r_20: + xp_21_1 + xp_19_2 + xp_19_1 + xp_14_1 + xp_0_6 + xp_0_3
 <= 29.4574468085106
 r_21: + xp_20_1 <= 28.8106343283582
 r_22: + xp_7_1 <= 28.8106343283582
 r_23: + xp_23_4 + xp_22_5 + xp_22_3 + xp_22_2 + xp_3_3 + xp_0_7
 <= 28.8106343283582
 r_24: + xp_18_5 + xp_17_6 + xp_3_2 + xp_0_5 + xp_0_3
 <= 28.8106343283582
 r_25: 0 xp_0_0 <= 28.8106343283582
 r_26: + xp_18_1 + xp_0_6 + xp_0_1 <= 27.7826086956522
 r_27: + xp_11_3 <= 28.8106343283582
 r_28: + xp_19_1 <= 28.8106343283582
 r_29: + xp_20_2 <= 29.4574468085106
 r_30: + xp_2_0 <= 28.8106343283582
 r_31: + xp_23_2 + xp_23_1 + xp_18_2 + xp_3_1 + xp_2_4 <= 30
 r_32: + xp_2_3 <= 30
 r_33: + xp_11_1 + xp_2_2 <= 30
 r_34: + xp_19_4 + xp_2_1 <= 30
 r_35: 0 xp_0_0 <= 29.4574468085106
 r_36: + xp_9_0 <= 28.8106343283582
 r_37: + xp_21_2 + xp_13_1 + xp_8_1 <= 30
 r_38: + xp_23_4 + xp_1_1 <= 30
 r_39: + xp_21_3 + xp_17_1 + xp_3_3 + xp_0_4 <= 30
 r_40: + xp_0_7 + xp_0_2 <= 27.7826086956522
 r_41: + xp_12_0 + xp_2_4 <= 28.8106343283582
 r_42: + xp_21_2 <= 30
 r_43: + xp_16_0 <= 30
 r_44: + xp_23_3 + xp_23_2 + xp_23_1 + xp_16_1 <= 30
 r_45: + xp_17_6 + xp_17_2 + xp_3_2 + xp_3_1 <= 30
 r_46: + xp_18_5 + xp_18_2 + xp_0_5 + xp_0_3 <= 27.7826086956522
 r_47: + xp_22_4 + xp_16_1 + xp_13_1 <= 30
 r_48: + xp_13_0 <= 30
 r_49: + xp_17_5 <= 30
 r_50: 0 xp_0_0 <= 27.7826086956522
 r_51: + xp_8_1 + xp_1_1 <= 30
 r_52: + xp_8_0 <= 30
 r_53: + xp_1_0 <= 30
 r_54: + xp_18_3 + xp_0_4 <= 27.7826086956522
 r_55: + xp_21_3 <= 30
 r_56: 0 xp_0_0 <= 30
 r_57: + xp_22_1 <= 27.7826086956522
 r_58: + xp_23_4 + xp_22_5 + xp_17_6 + xp_5_0 <= 27.7826086956522
 r_59: + xp_22_0 + xp_17_1 <= 27.7826086956522
 r_60: + xp_23_3 + xp_17_2 + xp_6_0 <= 27.7826086956522
 r_61: + xp_23_0 + xp_22_4 + xp_17_5 <= 27.7826086956522
 r_62: + xp_17_0 <= 27.7826086956522
 r_63: + xp_23_2 + xp_22_3 + xp_17_4 + xp_11_2 + xp_5_1
 <= 27.7826086956522
 r_64: + xp_23_1 + xp_22_2 + xp_17_3 <= 27.7826086956522
 r_65: + xp_20_1 + xp_19_1 + xp_14_1 + xp_7_1 + xp_2_3 + xp_0_6 + xp_0_3
 <= 28.8106343283582
 r_66: + xp_21_1 + xp_20_2 + xp_7_0 <= 30
 r_67: + xp_20_3 + xp_19_2 + xp_10_0 <= 30
 r_68: + xp_20_0 <= 29.4574468085106

Bounds
 0 <= xp_0_0 <= 28.544526874436
 0 <= xp_0_1 <= 8.93261685157561
 0 <= xp_0_2 <= 11.926817825041
 0 <= xp_0_3 <= 2.76961817489917
 0 <= xp_0_4 <= 1.69669025088863
 0 <= xp_0_5 <= 2.76961817489917
 0 <= xp_0_6 <= 6.38758147524266
 0 <= xp_0_7 <= 0.848345125444316
 0 <= xp_1_0 <= 20.6515194402269
 0 <= xp_1_1 <= 15.1122830904286
 0 <= xp_2_0 <= 23.6706635949755
 0 <= xp_2_1 <= 2.27057729367314
 0 <= xp_2_2 <= 7.80981364347149
 0 <= xp_2_3 <= 0.756859097891047
 0 <= xp_2_4 <= 0.756859097891047
 0 <= xp_3_0 <= 23.6789779887365
 0 <= xp_3_1 <= 2.02937678605752
 0 <= xp_3_2 <= 6.04658054631273
 0 <= xp_3_3 <= 1.01468839302876
 0 <= xp_4_0 <= 26.6149228135111
 0 <= xp_5_0 <= 23.95343053216
 0 <= xp_5_1 <= 2.66149228135111
 0 <= xp_6_0 <= 23.95343053216
 0 <= xp_7_0 <= 16.0687596486573
 0 <= xp_7_1 <= 6.88661127799599
 0 <= xp_8_0 <= 18.563908662424
 0 <= xp_8_1 <= 2.06265651804711
 0 <= xp_9_0 <= 19.1294757722111
 0 <= xp_10_0 <= 19.1294757722111
 0 <= xp_11_0 <= 27.6961817489917
 0 <= xp_11_1 <= 8.63318789145091
 0 <= xp_11_2 <= 9.8558302955238
 0 <= xp_11_3 <= 14.3637494647713
 0 <= xp_12_0 <= 17.96507289912
 0 <= xp_13_0 <= 13.9728344770933
 0 <= xp_13_1 <= 3.49320861927333
 0 <= xp_14_0 <= 14.9708940826
 0 <= xp_14_1 <= 1.66343267584444
 0 <= xp_15_0 <= 16.46798349086
 0 <= xp_16_0 <= 14.22234937847
 0 <= xp_16_1 <= 1.58026104205222
 0 <= xp_17_0 <= 28.6360129019893
 0 <= xp_17_1 <= 5.56417399184514
 0 <= xp_17_2 <= 1.85472466394838
 0 <= xp_17_3 <= 1.85472466394838
 0 <= xp_17_4 <= 3.70944932789676
 0 <= xp_17_5 <= 2.76961817489917
 0 <= xp_17_6 <= 1.85472466394838
 0 <= xp_18_0 <= 24.3526654528353
 0 <= xp_18_1 <= 1.65511274284705
 0 <= xp_18_2 <= 4.42473091774622
 0 <= xp_18_3 <= 1.65511274284705
 0 <= xp_18_4 <= 10.5045745783395
 0 <= xp_18_5 <= 1.65511274284705
 0 <= xp_19_0 <= 29.3013915115634
 0 <= xp_19_1 <= 1.60520976257171
 0 <= xp_19_2 <= 3.21041952514343
 0 <= xp_19_3 <= 1.60520976257171
 0 <= xp_19_4 <= 8.02604881285856
 0 <= xp_20_0 <= 27.9706398316515
 0 <= xp_20_1 <= 7.33573256123764
 0 <= xp_20_2 <= 4.56611438633847
 0 <= xp_20_3 <= 3.04407625755898
 0 <= xp_21_0 <= 21.9739511871414
 0 <= xp_21_1 <= 5.44773924377238
 0 <= xp_21_2 <= 8.21735741867155
 0 <= xp_21_3 <= 4.10867870933577
 0 <= xp_21_4 <= 1.3390605344366
 0 <= xp_22_0 <= 22.9054790248507
 0 <= xp_22_1 <= 2.76961817489917
 0 <= xp_22_2 <= 2.34543453370431
 0 <= xp_22_3 <= 6.7119536166505
 0 <= xp_22_4 <= 3.51815180055647
 0 <= xp_22_5 <= 1.17271726685216
 0 <= xp_23_0 <= 21.3085781168037
 0 <= xp_23_1 <= 12.9997235921061
 0 <= xp_23_2 <= 1.17271726685216
 0 <= xp_23_3 <= 1.17271726685216
 0 <= xp_23_4 <= 2.76961817489917

End
